c Output_time 26.03.2020 18:15:11_+0100 1585242911833843268
c ** Program information **
c program_name                          "QBRG_debug"
c version                               "0.3.20"
c date                                  "25.3.2020"
c gid_id                                "673970833836058123f633335630c185360d632e"
c author                                "Oliver Kullmann"
c url                                   "https://github.com/OKullmann/oklibrary/blob/master/Satisfiability/Transformers/Generators/Random/QBRG.cpp"
c ** Machine information **
c machine_name                          "chyna-Lenovo-G50-70"
c bogomips                              3791.08
c ** Compilation information **
c compiler_version                      "g++ 7.5.0"
c compilation_date                      "Mar_26_2020 11:16:30"
c compilation_options                   "--std=c++17 -pedantic -fmax-errors=5 -Wall -Wextra -g -D_GLIBCXX_DEBUG"
c NDEBUG                                0
c OPTIMIZE                              0
c ** Parameters **
c command-line                          "./QBRG_debug" "a40 e40 a40 40" "216*1,1|2-2,1|3-3,1|4-4,1" "" "1,t" ""
c output                                "QuBlRaGe_160_216_1585242911830161591.qdimacs"
c options                               "filtered,renamed"
c num_quantifier_blocks                 4
c  quantifier_blocks                    1:a1-40 2:e41-80 3:a81-120 4:e121-160
c num_clause-blocks                     1
c  clause-blocks                        216 * {1-40,1,1/2} | {41-80,1,1/2} | {81-120,1,1/2} | {121-160,1,1/2}
c num_e-seeds                           37+2=39
c  e-seeds                              1 0 1 0 5 160 2 40 0 40 1 40 0 40 1 216 4 1 1 1 1 2 2 2 1 1 2 3 3 1 1 2 4 4 1 1 2 1 1585242911830161003
p cnf 160 216
a 1 2 3 4 5 6 7 8 9 10 11 12 13 14 15 16 17 18 19 20 21 22 23 24 25 26 27 28 29 30 31 32 33 34 35 36 37 38 39 40 0
e 41 42 43 44 45 46 47 48 49 50 51 52 53 54 55 56 57 58 59 60 61 62 63 64 65 66 67 68 69 70 71 72 73 74 75 76 77 78 79 80 0
a 81 82 83 84 85 86 87 88 89 90 91 92 93 94 95 96 97 98 99 100 101 102 103 104 105 106 107 108 109 110 111 112 113 114 115 116 117 118 119 120 0
e 121 122 123 124 125 126 127 128 129 130 131 132 133 134 135 136 137 138 139 140 141 142 143 144 145 146 147 148 149 150 151 152 153 154 155 156 157 158 159 160 0
1 54 91 -121 0
-18 78 92 -121 0
-4 80 92 -121 0
-17 -59 114 -121 0
-32 -56 84 121 0
11 -51 93 121 0
19 -71 88 -122 0
-6 -52 -111 -122 0
20 56 110 122 0
3 65 116 122 0
-31 61 -102 -123 0
-9 70 102 -123 0
25 -52 97 123 0
-37 75 -112 123 0
34 -80 116 123 0
39 -54 -87 -124 0
-29 56 -89 -124 0
-36 60 -99 -124 0
16 -80 -104 -124 0
-20 45 -118 -124 0
-40 -55 -107 124 0
-7 52 -112 124 0
30 76 -96 -125 0
27 69 101 -125 0
-13 59 -102 -125 0
9 -71 107 -125 0
-31 69 -111 -125 0
26 60 114 125 0
-18 51 -86 -126 0
10 -73 -100 -126 0
-2 42 112 -126 0
-30 54 81 126 0
-29 -73 84 126 0
-24 62 -112 126 0
31 -48 -115 126 0
30 67 -91 -127 0
20 80 -96 -127 0
-16 50 -117 -127 0
24 -72 -88 127 0
10 72 -89 127 0
-2 76 105 -128 0
1 -64 84 128 0
-38 73 84 128 0
29 66 -92 128 0
-23 -45 97 128 0
32 45 -101 128 0
14 43 87 -129 0
39 -48 -96 -129 0
-27 54 -112 -129 0
-28 -51 90 129 0
-11 -49 102 129 0
-7 46 113 129 0
3 69 95 -130 0
-14 -80 97 -130 0
34 59 89 130 0
-28 -47 -114 130 0
-28 -55 112 -131 0
-24 71 -110 131 0
-28 -41 104 -132 0
-39 -55 108 -132 0
-3 -64 113 -132 0
-23 62 -81 132 0
3 -47 -84 133 0
15 60 101 133 0
19 -52 107 133 0
8 -56 111 133 0
-14 58 95 -134 0
20 -61 -119 -134 0
-1 -62 -88 134 0
19 -56 -98 134 0
-30 78 -103 134 0
-27 -54 -111 134 0
-19 -54 111 134 0
-33 -80 -81 -135 0
29 41 -113 -135 0
19 -50 -92 135 0
-7 47 86 -136 0
-28 -51 100 -136 0
-26 61 -110 -136 0
-33 -42 110 -136 0
-29 -66 -112 -136 0
27 51 -84 136 0
3 -61 85 136 0
37 -55 92 -137 0
12 -75 94 -137 0
9 -77 -100 -137 0
21 -62 -102 137 0
24 -41 -115 137 0
12 65 -90 -138 0
14 -70 94 -138 0
33 -45 120 -138 0
-22 -65 82 138 0
-10 -53 100 138 0
9 79 -106 138 0
-23 -62 -86 -139 0
-40 59 -89 -139 0
-17 72 90 -139 0
27 -56 96 -139 0
-28 -76 96 -139 0
24 -62 97 -139 0
-25 44 -105 -139 0
29 68 100 139 0
25 77 -109 139 0
31 71 109 -140 0
-26 -45 82 140 0
-2 64 90 140 0
-40 80 100 140 0
-2 64 102 140 0
28 80 -108 140 0
-20 -78 89 -141 0
15 -48 -107 -141 0
39 64 112 -141 0
21 50 -118 -141 0
34 56 -85 141 0
-7 65 98 141 0
36 63 105 141 0
-36 -74 -88 -142 0
8 -60 -99 -142 0
40 -60 116 -142 0
29 -54 81 142 0
21 75 -91 142 0
-32 -57 -95 142 0
-23 47 -96 142 0
25 -69 -83 -143 0
-23 52 100 -143 0
-28 -42 -115 -143 0
29 73 87 143 0
-40 61 -105 143 0
12 -50 106 143 0
22 -80 -84 -144 0
26 -42 -87 -144 0
23 80 -120 -144 0
10 -43 85 144 0
28 69 106 144 0
29 -48 114 144 0
-31 -59 -120 144 0
-35 61 -81 -145 0
15 74 -89 -145 0
-17 -61 -93 -145 0
4 -54 -102 -145 0
35 -52 95 145 0
-7 -71 84 -146 0
-18 69 94 -146 0
21 -50 -96 -146 0
-9 50 -115 -146 0
-24 -77 -97 146 0
-20 -43 -102 146 0
20 -67 -103 146 0
-1 65 106 146 0
5 -65 119 146 0
-40 -44 -104 -147 0
23 44 83 147 0
34 50 -99 147 0
-8 75 109 147 0
26 -73 -84 -148 0
-25 48 -85 -148 0
-13 -75 94 -148 0
-15 45 -102 -148 0
-33 -53 95 148 0
13 72 96 148 0
40 62 -103 148 0
-12 42 82 -149 0
37 77 96 -149 0
-31 -48 99 -149 0
-17 73 -113 -149 0
30 59 87 -150 0
-31 -64 -107 -150 0
11 -55 -110 -150 0
-28 -68 115 -150 0
-31 -62 -88 150 0
16 61 -92 150 0
-1 60 -91 -151 0
5 46 103 -151 0
-34 43 -112 -151 0
8 -43 113 151 0
-26 60 83 -152 0
4 74 -91 -152 0
13 65 -110 -152 0
-36 -68 111 -152 0
-28 73 83 152 0
-15 53 -111 152 0
14 -53 -106 -153 0
40 57 115 -153 0
-24 73 -89 153 0
22 -73 -104 153 0
12 46 -114 153 0
-28 54 84 -154 0
6 -44 107 154 0
-18 -41 -110 154 0
-19 -71 -116 154 0
-12 -69 -90 -155 0
30 -78 -99 -155 0
-25 -43 -102 -155 0
-39 -65 -109 -155 0
-11 -56 88 155 0
9 -61 97 155 0
-16 -51 98 155 0
24 80 117 155 0
-37 47 90 156 0
-29 62 -91 156 0
22 69 101 156 0
1 74 92 157 0
32 74 104 157 0
20 -74 119 157 0
-6 -52 -105 -158 0
17 78 102 158 0
18 -69 -93 -159 0
15 -43 110 -159 0
33 -48 112 -159 0
40 -51 97 159 0
30 -79 108 159 0
33 48 112 159 0
26 75 -117 159 0
17 -52 -120 159 0
-37 -65 111 -160 0
-1 -62 -119 160 0
